1495.81,37.86,45.37
1540.39,36.76,44.06
1723.53,32.86,39.38
1487.77,38.06,45.62
1500.63,37.74,45.23
1687.38,33.56,40.22
1611.31,35.14,42.12
1524.98,37.13,44.5
1550.77,36.52,43.76
1552.74,36.47,43.71
1664.44,34.02,40.78
1515.04,37.38,44.8
1535.34,36.88,44.2
1670.71,33.9,40.62
1637.04,34.59,41.46
1658.85,34.14,40.91
1512.19,37.45,44.88
1592.54,35.56,42.62
1635.81,34.62,41.49
1629.8,34.75,41.64
